p tw 164 320
1 22
1 47
1 48
1 57
1 119
1 143
1 144
1 164
2 82
2 83
2 127
2 128
3 61
3 62
3 74
3 75
3 112
3 113
4 8
4 54
4 55
5 32
5 100
5 130
6 52
6 53
6 93
6 94
7 56
7 57
7 98
7 99
7 104
7 105
8 101
8 102
9 43
9 44
9 124
9 125
9 138
9 139
9 153
9 154
10 100
10 101
10 125
10 126
11 128
11 129
11 142
11 143
12 77
12 159
12 160
13 60
13 61
13 73
13 74
14 45
14 46
14 115
14 116
14 141
14 142
14 162
14 163
15 59
15 60
15 71
15 72
16 86
16 87
16 99
17 69
17 70
17 84
17 85
18 83
18 84
18 130
18 131
19 63
19 76
19 106
20 24
20 102
20 103
21 89
21 90
21 106
21 107
21 148
22 131
22 132
23 51
23 114
23 158
24 53
24 54
25 48
25 49
25 129
25 145
25 146
25 156
25 157
26 42
26 43
26 107
26 108
26 136
26 137
26 149
26 150
27 58
27 59
27 72
27 73
27 116
27 117
27 140
27 141
28 108
28 109
28 137
28 138
29 44
29 45
29 111
29 112
29 139
29 140
29 154
29 155
30 52
30 88
30 89
30 120
30 121
30 148
30 149
31 50
31 51
31 113
31 114
31 146
31 147
31 157
31 158
32 65
32 66
32 79
32 80
32 115
32 161
32 162
33 64
33 65
33 77
33 78
33 121
33 122
34 41
34 42
34 135
34 136
34 159
35 91
35 92
35 150
35 151
36 49
36 50
36 133
36 134
36 147
37 94
37 95
37 123
37 124
38 46
38 47
38 62
38 63
38 75
38 76
38 118
38 119
38 144
38 145
38 163
38 164
39 67
39 68
39 81
39 82
39 96
39 97
39 110
39 111
39 152
39 153
40 64
40 78
40 79
41 42
41 135
42 43
43 44
44 45
45 46
46 47
47 48
48 49
49 50
50 51
52 53
53 54
54 55
55 56
56 57
58 59
58 71
59 60
60 61
61 62
62 63
64 65
65 66
66 67
67 68
68 69
69 70
70 87
71 72
72 73
73 74
74 75
75 76
77 78
78 79
79 80
80 81
81 82
82 83
83 84
84 85
85 86
86 87
88 89
88 120
89 90
90 91
91 92
92 93
93 94
94 95
95 96
96 97
97 98
98 99
100 101
101 102
102 103
103 104
104 105
105 134
106 107
107 108
108 109
109 110
110 111
111 112
112 113
113 114
115 116
116 117
117 118
118 119
120 121
121 122
122 123
123 124
124 125
125 126
126 127
127 128
128 129
130 131
131 132
132 133
133 134
135 136
136 137
137 138
138 139
139 140
140 141
141 142
142 143
143 144
144 145
145 146
146 147
148 149
149 150
150 151
151 152
152 153
153 154
154 155
155 156
156 157
157 158
159 160
160 161
161 162
162 163
163 164
